NAME : local_12
TYPE : ATSP
DIMENSION : 5
EDGE_WEIGHT_TYPE : EXPLICIT
EDGE_WEIGHT_FORMAT : FULL_MATRIX
EDGE_WEIGHT_SECTION
0 751 10000000 146 10000000 
0 0 10000000 645 678 
0 10000000 0 10000000 865 
0 658 10000000 0 10000000 
0 10000000 10000000 10000000 0 
EOF